Gurobi Optimizer version 9.1.2 build v9.1.2rc0 (linux64)
Thread count: 36 physical cores, 72 logical processors, using up to 32 threads
Optimize a model with 12 rows, 57 columns and 590 nonzeros
Model fingerprint: 0xf32eec78
Model has 47 quadratic constraints
Coefficient statistics:
  Matrix range     [2e-05, 3e+00]
  QMatrix range    [1e+00, 1e+00]
  QLMatrix range   [1e+00, 1e+00]
  Objective range  [8e-03, 7e-01]
  Bounds range     [1e+00, 1e+00]
  RHS range        [1e+00, 1e+00]
Presolve removed 9 rows and 0 columns

Continuous model is non-convex -- solving as a MIP.

Presolve removed 9 rows and 0 columns
Presolve time: 0.00s
Presolved: 189 rows, 57 columns, 443 nonzeros
Presolved model has 47 bilinear constraint(s)
Variable types: 57 continuous, 0 integer (0 binary)

Root relaxation: objective -1.743721e+00, 44 iterations, 0.00 seconds

    Nodes    |    Current Node    |     Objective Bounds      |     Work
 Expl Unexpl |  Obj  Depth IntInf | Incumbent    BestBd   Gap | It/Node Time

     0     0   -1.74372    0   38          -   -1.74372      -     -    0s
H    0     0                       0.6147548   -1.74372   384%     -    0s
     0     0   -1.64739    0    1    0.61475   -1.64739   368%     -    0s
H    0     0                      -1.6450460   -1.64739  0.14%     -    0s
     0     0     cutoff    0        -1.64505   -1.64505  0.00%     -    0s

Cutting planes:
  RLT: 25
  BQP: 3

Explored 1 nodes (76 simplex iterations) in 0.01 seconds
Thread count was 32 (of 72 available processors)

Solution count 2: -1.64505 0.614755 
No other solutions better than -1.64505

Optimal solution found (tolerance 1.00e-04)
Best objective -1.645045978473e+00, best bound -1.645045978473e+00, gap 0.0000%

User-callback calls 78, time in user-callback 0.00 sec
Gurobi Optimizer version 9.1.2 build v9.1.2rc0 (linux64)
Thread count: 36 physical cores, 72 logical processors, using up to 32 threads
Optimize a model with 24 rows, 120 columns and 2480 nonzeros
Model fingerprint: 0xcb9b8940
Model has 100 quadratic constraints
Coefficient statistics:
  Matrix range     [8e-06, 4e+00]
  QMatrix range    [1e+00, 1e+00]
  QLMatrix range   [1e+00, 1e+00]
  Objective range  [8e-03, 2e+00]
  Bounds range     [1e+00, 1e+00]
  RHS range        [1e+00, 1e+00]
Presolve removed 16 rows and 0 columns

Continuous model is non-convex -- solving as a MIP.

Presolve removed 16 rows and 0 columns
Presolve time: 0.00s
Presolved: 408 rows, 120 columns, 1351 nonzeros
Presolved model has 100 bilinear constraint(s)
Variable types: 120 continuous, 0 integer (0 binary)

Root relaxation: objective -1.024668e+01, 149 iterations, 0.00 seconds

    Nodes    |    Current Node    |     Objective Bounds      |     Work
 Expl Unexpl |  Obj  Depth IntInf | Incumbent    BestBd   Gap | It/Node Time

     0     0  -10.24668    0   86          -  -10.24668      -     -    0s
H    0     0                       0.7264855  -10.24668  1510%     -    0s
     0     0   -7.87745    0   90    0.72649   -7.87745  1184%     -    0s
H    0     0                       0.3181394   -7.87745  2576%     -    0s
     0     0   -6.59621    0   90    0.31814   -6.59621  2173%     -    0s
H    0     0                      -1.2398424   -6.59621   432%     -    0s
     0     0   -6.55560    0   81   -1.23984   -6.55560   429%     -    0s
     0     0   -6.33197    0   91   -1.23984   -6.33197   411%     -    0s
     0     0   -6.25131    0  100   -1.23984   -6.25131   404%     -    0s
     0     0   -6.13737    0   81   -1.23984   -6.13737   395%     -    0s
H    0     0                      -1.5946715   -6.13737   285%     -    0s
     0     0   -6.12279    0   91   -1.59467   -6.12279   284%     -    0s
     0     0   -6.09736    0   91   -1.59467   -6.09736   282%     -    0s
H    0     0                      -1.6839291   -6.09736   262%     -    0s
     0     0   -6.09362    0  100   -1.68393   -6.09362   262%     -    0s
     0     0   -6.09197    0  100   -1.68393   -6.09197   262%     -    0s
     0     0   -6.09042    0  100   -1.68393   -6.09042   262%     -    0s
H    0     0                      -3.4271111   -6.09042  77.7%     -    0s
H    0     0                      -4.0760267   -6.09042  49.4%     -    0s
H    0     0                      -4.0803962   -6.09042  49.3%     -    0s
H    0     0                      -4.3279810   -6.09042  40.7%     -    0s
     0     2   -6.09042    0  100   -4.32798   -6.09042  40.7%     -    0s
*  621   414              24      -4.3495101   -5.29083  21.6%  36.7    0s
*  761   494              27      -4.3508927   -5.29083  21.6%  34.2    0s
*  929   620              28      -4.3509527   -5.28894  21.6%  31.4    0s
* 1310   956              22      -5.0622391   -5.20200  2.76%  27.1    0s
* 1695   661              18      -5.0742809   -5.07535  0.02%  22.4    0s

Cutting planes:
  RLT: 83
  BQP: 12
  PSD: 9

Explored 2235 nodes (38503 simplex iterations) in 0.56 seconds
Thread count was 32 (of 72 available processors)

Solution count 10: -5.07428 -5.06224 -4.35095 ... -1.68393
No other solutions better than -5.07428

Optimal solution found (tolerance 1.00e-04)
Best objective -5.074280944730e+00, best bound -5.074280944730e+00, gap 0.0000%

User-callback calls 4746, time in user-callback 0.00 sec



objective value: -5.074280944729558
objective bound: -5.074280944729558
x_opt: [0.0, 1.0, 1.0, 1.0, 1.0, 0.0, 0.0, 0.0, 0.26844209277251574, 1.0, 0.0, 0.26884082668888004, 1.0, 0.9154003596645904, 1.0, 0.0, 0.0, 0.0, 0.0, 0.54308857929946]
GUROBI solution time: 0.5615348815917969




